(set-logic QF_NRA)
; benchmark generated from python API
(set-info :status unknown)
(declare-fun v1y () Real)
(declare-fun oy () Real)
(declare-fun v1x () Real)
(declare-fun R2 () Real)
(declare-fun xy () Real)
(declare-fun a1y () Real)
(declare-fun xx () Real)
(declare-fun a1x () Real)
(declare-fun rho2 () Real)
(declare-fun a2y () Real)
(declare-fun a2x () Real)
(declare-fun b1y () Real)
(declare-fun b1x () Real)
(declare-fun b2y () Real)
(declare-fun b2x () Real)
(assert
 (let ((?x490 (* (- 1.0) v1x)))
 (let ((?x289 (* (- 1.0) R2)))
 (let ((?x492 (+ (+ (+ (+ (/ 1.0 4.0) (* oy oy)) (* v1x v1x)) (* v1y v1y)) ?x289)))
 (= (+ (+ ?x492 ?x490) (* (* (- 2.0) oy) v1y)) 0.0)))))
(assert
 (= (+ (+ (/ 1.0 4.0) (* oy oy)) (* (- 1.0) R2)) 0.0))
(assert
 (let ((?x275 (* (- 1.0) rho2)))
 (let ((?x203 (* xy xy)))
 (let ((?x193 (+ (+ (+ (+ (* a1x a1x) (* a1y a1y)) (* xx xx)) ?x203) ?x275)))
 (= (+ (+ ?x193 (* (* (- 2.0) a1x) xx)) (* (* (- 2.0) a1y) xy)) 0.0)))))
(assert
 (let ((?x275 (* (- 1.0) rho2)))
 (let ((?x203 (* xy xy)))
 (let ((?x470 (+ (+ (+ (+ (* a2x a2x) (* a2y a2y)) (* xx xx)) ?x203) ?x275)))
 (= (+ (+ ?x470 (* (* (- 2.0) a2x) xx)) (* (* (- 2.0) a2y) xy)) 0.0)))))
(assert
 (let ((?x275 (* (- 1.0) rho2)))
 (let ((?x203 (* xy xy)))
 (let ((?x462 (+ (+ (+ (+ (* b1x b1x) (* b1y b1y)) (* xx xx)) ?x203) ?x275)))
 (= (+ (+ ?x462 (* (* (- 2.0) b1x) xx)) (* (* (- 2.0) b1y) xy)) 0.0)))))
(assert
 (let ((?x275 (* (- 1.0) rho2)))
 (let ((?x203 (* xy xy)))
 (let ((?x448 (+ (+ (+ (+ (* b2x b2x) (* b2y b2y)) (* xx xx)) ?x203) ?x275)))
 (= (+ (+ ?x448 (* (* (- 2.0) b2x) xx)) (* (* (- 2.0) b2y) xy)) 0.0)))))
(assert
 (let ((?x217 (+ (+ (+ (+ (- (/ 1.0 4.0)) R2) xx) (* (- 1.0) (* oy oy))) (* (- 1.0) (* xx xx)))))
 (>= (+ (+ ?x217 (* (- 1.0) (* xy xy))) (* (* 2.0 oy) xy)) 0.0)))
(assert
 (let ((?x15 (* oy oy)))
 (let ((?x452 (* (- 1.0) ?x15)))
 (let ((?x423 (+ (+ (+ (+ (- (/ 1.0 4.0)) R2) a1x) (* (- 1.0) (* a1x a1x))) (* (- 1.0) (* a1y a1y)))))
 (>= (+ (+ ?x423 ?x452) (* (* 2.0 a1y) oy)) 0.0)))))
(assert
 (let ((?x15 (* oy oy)))
 (let ((?x452 (* (- 1.0) ?x15)))
 (let ((?x421 (+ (+ (+ (+ (- (/ 1.0 4.0)) R2) a2x) (* (- 1.0) (* a2x a2x))) (* (- 1.0) (* a2y a2y)))))
 (>= (+ (+ ?x421 ?x452) (* (* 2.0 a2y) oy)) 0.0)))))
(assert
 (let ((?x15 (* oy oy)))
 (let ((?x452 (* (- 1.0) ?x15)))
 (let ((?x407 (+ (+ (+ (+ (- (/ 1.0 4.0)) R2) b1x) (* (- 1.0) (* b1x b1x))) (* (- 1.0) (* b1y b1y)))))
 (>= (+ (+ ?x407 ?x452) (* (* 2.0 b1y) oy)) 0.0)))))
(assert
 (let ((?x15 (* oy oy)))
 (let ((?x452 (* (- 1.0) ?x15)))
 (let ((?x401 (+ (+ (+ (+ (- (/ 1.0 4.0)) R2) b2x) (* (- 1.0) (* b2x b2x))) (* (- 1.0) (* b2y b2y)))))
 (>= (+ (+ ?x401 ?x452) (* (* 2.0 b2y) oy)) 0.0)))))
(assert
 (>= (+ (+ (* v1x v1x) (* v1y v1y)) (* (- 1.0) v1x)) 0.0))
(assert
 (>= v1x 0.0))
(assert
 (>= (+ 1.0 (* (- 1.0) v1x)) 0.0))
(assert
 (> R2 0.0))
(assert
 (> rho2 0.0))
(assert
 (let ((?x387 (* (- 1.0) v1y)))
 (let ((?x388 (* ?x387 xy)))
 (> ?x388 0.0))))
(assert
 (let ((?x386 (+ (+ (* v1y v1y) (* (* (- 1.0) v1y) xy)) (* (* (- 1.0) xx) (* v1y v1y)))))
 (> (+ ?x386 (* (* v1x v1y) xy)) 0.0)))
(assert
 (> (+ (* xx (* v1y v1y)) (* (* (* (- 1.0) v1x) v1y) xy)) 0.0))
(assert
 (let ((?x318 (* a1y v1y)))
 (> ?x318 0.0)))
(assert
 (let ((?x371 (* (- 1.0) a1y)))
 (let ((?x372 (* ?x371 v1x)))
 (let ((?x241 (* ?x372 v1y)))
 (let ((?x318 (* a1y v1y)))
 (let ((?x375 (+ (+ (+ (* (- 1.0) (* v1y v1y)) (* a1x (* v1y v1y))) ?x318) ?x241)))
 (> ?x375 0.0)))))))
(assert
 (> (+ (* a1x (* v1y v1y)) (* (* (* (- 1.0) a1y) v1x) v1y)) 0.0))
(assert
 (let ((?x366 (* a2y v1y)))
 (> ?x366 0.0)))
(assert
 (let ((?x312 (* (- 1.0) a2y)))
 (let ((?x369 (* ?x312 v1x)))
 (let ((?x370 (* ?x369 v1y)))
 (let ((?x366 (* a2y v1y)))
 (let ((?x360 (+ (+ (+ (* (- 1.0) (* v1y v1y)) (* a2x (* v1y v1y))) ?x366) ?x370)))
 (> ?x360 0.0)))))))
(assert
 (> (+ (* a2x (* v1y v1y)) (* (* (* (- 1.0) a2y) v1x) v1y)) 0.0))
(assert
 (> (* b1y v1y) 0.0))
(assert
 (let ((?x356 (* b1y v1x)))
 (let ((?x357 (* ?x356 v1y)))
 (let ((?x305 (+ (+ (* v1y v1y) (* (* (- 1.0) b1x) (* v1y v1y))) (* (* (- 1.0) b1y) v1y))))
 (> (+ ?x305 ?x357) 0.0)))))
(assert
 (> (+ (* (* (- 1.0) b1x) (* v1y v1y)) (* (* b1y v1x) v1y)) 0.0))
(assert
 (> (* b2y v1y) 0.0))
(assert
 (let ((?x233 (* b2y v1x)))
 (let ((?x343 (* ?x233 v1y)))
 (let ((?x345 (+ (+ (* v1y v1y) (* (* (- 1.0) b2x) (* v1y v1y))) (* (* (- 1.0) b2y) v1y))))
 (> (+ ?x345 ?x343) 0.0)))))
(assert
 (> (+ (* (* (- 1.0) b2x) (* v1y v1y)) (* (* b2y v1x) v1y)) 0.0))
(assert
 (let ((?x338 (* (- 1.0) xy)))
 (> ?x338 0.0)))
(assert
 (> (+ (* a1y xx) (* (* (- 1.0) a1x) xy)) 0.0))
(assert
 (> (+ (* a2y xx) (* (* (- 1.0) a2x) xy)) 0.0))
(assert
 (> (+ (* v1y xx) (* (* (- 1.0) v1x) xy)) 0.0))
(assert
 (> (+ (* b1y xx) (* (* (- 1.0) b1x) xy)) 0.0))
(assert
 (> (+ (* b2y xx) (* (* (- 1.0) b2x) xy)) 0.0))
(assert
 (> a1y 0.0))
(assert
 (> a2y 0.0))
(assert
 (> v1y 0.0))
(assert
 (> b1y 0.0))
(assert
 (> b2y 0.0))
(assert
 (> (+ (* a1x a2y) (* (* (- 1.0) a1y) a2x)) 0.0))
(assert
 (> (+ (* a1x v1y) (* (* (- 1.0) a1y) v1x)) 0.0))
(assert
 (> (+ (* a1x b1y) (* (* (- 1.0) a1y) b1x)) 0.0))
(assert
 (> (+ (* a1x b2y) (* (* (- 1.0) a1y) b2x)) 0.0))
(assert
 (> (+ (* a2x v1y) (* (* (- 1.0) a2y) v1x)) 0.0))
(assert
 (> (+ (* a2x b1y) (* (* (- 1.0) a2y) b1x)) 0.0))
(assert
 (> (+ (* a2x b2y) (* (* (- 1.0) a2y) b2x)) 0.0))
(assert
 (> (+ (* b1y v1x) (* (* (- 1.0) b1x) v1y)) 0.0))
(assert
 (> (+ (* b2y v1x) (* (* (- 1.0) b2x) v1y)) 0.0))
(assert
 (> (+ (* b1x b2y) (* (* (- 1.0) b1y) b2x)) 0.0))
(assert
 (let ((?x246 (+ (+ (+ a1y (* (- 1.0) xy)) (* a1x xy)) (* (* (- 1.0) a1y) xx))))
 (> ?x246 0.0)))
(assert
 (let ((?x312 (* (- 1.0) a2y)))
 (let ((?x243 (* ?x312 xx)))
 (> (+ (+ (+ a2y (* (- 1.0) xy)) (* a2x xy)) ?x243) 0.0))))
(assert
 (let ((?x387 (* (- 1.0) v1y)))
 (let ((?x23 (* ?x387 xx)))
 (> (+ (+ (+ v1y (* (- 1.0) xy)) (* v1x xy)) ?x23) 0.0))))
(assert
 (let ((?x354 (* (- 1.0) b1y)))
 (let ((?x220 (* ?x354 xx)))
 (> (+ (+ (+ b1y (* (- 1.0) xy)) (* b1x xy)) ?x220) 0.0))))
(assert
 (let ((?x341 (* (- 1.0) b2y)))
 (let ((?x204 (* ?x341 xx)))
 (> (+ (+ (+ b2y (* (- 1.0) xy)) (* b2x xy)) ?x204) 0.0))))
(assert
 (let ((?x312 (* (- 1.0) a2y)))
 (let ((?x243 (* ?x312 xx)))
 (let ((?x371 (* (- 1.0) a1y)))
 (let ((?x301 (* ?x371 a2x)))
 (let ((?x329 (* (- 1.0) a1x)))
 (let ((?x330 (* ?x329 xy)))
 (let ((?x212 (+ (+ (+ (+ (* a1x a2y) (* a1y xx)) (* a2x xy)) ?x330) ?x301)))
 (> (+ ?x212 ?x243) 0.0)))))))))
(assert
 (let ((?x387 (* (- 1.0) v1y)))
 (let ((?x23 (* ?x387 xx)))
 (let ((?x371 (* (- 1.0) a1y)))
 (let ((?x372 (* ?x371 v1x)))
 (let ((?x329 (* (- 1.0) a1x)))
 (let ((?x330 (* ?x329 xy)))
 (let ((?x200 (+ (+ (+ (+ (* a1x v1y) (* a1y xx)) (* v1x xy)) ?x330) ?x372)))
 (> (+ ?x200 ?x23) 0.0)))))))))
(assert
 (let ((?x354 (* (- 1.0) b1y)))
 (let ((?x220 (* ?x354 xx)))
 (let ((?x371 (* (- 1.0) a1y)))
 (let ((?x294 (* ?x371 b1x)))
 (let ((?x329 (* (- 1.0) a1x)))
 (let ((?x330 (* ?x329 xy)))
 (let ((?x187 (+ (+ (+ (+ (* a1x b1y) (* a1y xx)) (* b1x xy)) ?x330) ?x294)))
 (> (+ ?x187 ?x220) 0.0)))))))))
(assert
 (let ((?x341 (* (- 1.0) b2y)))
 (let ((?x204 (* ?x341 xx)))
 (let ((?x371 (* (- 1.0) a1y)))
 (let ((?x292 (* ?x371 b2x)))
 (let ((?x329 (* (- 1.0) a1x)))
 (let ((?x330 (* ?x329 xy)))
 (let ((?x176 (+ (+ (+ (+ (* a1x b2y) (* a1y xx)) (* b2x xy)) ?x330) ?x292)))
 (> (+ ?x176 ?x204) 0.0)))))))))
(assert
 (let ((?x387 (* (- 1.0) v1y)))
 (let ((?x23 (* ?x387 xx)))
 (let ((?x312 (* (- 1.0) a2y)))
 (let ((?x369 (* ?x312 v1x)))
 (let ((?x334 (* (- 1.0) a2x)))
 (let ((?x323 (* ?x334 xy)))
 (let ((?x175 (+ (+ (+ (+ (* a2x v1y) (* a2y xx)) (* v1x xy)) ?x323) ?x369)))
 (> (+ ?x175 ?x23) 0.0)))))))))
(assert
 (let ((?x354 (* (- 1.0) b1y)))
 (let ((?x220 (* ?x354 xx)))
 (let ((?x312 (* (- 1.0) a2y)))
 (let ((?x276 (* ?x312 b1x)))
 (let ((?x334 (* (- 1.0) a2x)))
 (let ((?x323 (* ?x334 xy)))
 (let ((?x159 (+ (+ (+ (+ (* a2x b1y) (* a2y xx)) (* b1x xy)) ?x323) ?x276)))
 (> (+ ?x159 ?x220) 0.0)))))))))
(assert
 (let ((?x341 (* (- 1.0) b2y)))
 (let ((?x204 (* ?x341 xx)))
 (let ((?x312 (* (- 1.0) a2y)))
 (let ((?x270 (* ?x312 b2x)))
 (let ((?x334 (* (- 1.0) a2x)))
 (let ((?x323 (* ?x334 xy)))
 (let ((?x164 (+ (+ (+ (+ (* a2x b2y) (* a2y xx)) (* b2x xy)) ?x323) ?x270)))
 (> (+ ?x164 ?x204) 0.0)))))))))
(assert
 (let ((?x490 (* (- 1.0) v1x)))
 (let ((?x326 (* ?x490 xy)))
 (let ((?x354 (* (- 1.0) b1y)))
 (let ((?x220 (* ?x354 xx)))
 (let ((?x364 (* (- 1.0) b1x)))
 (let ((?x267 (* ?x364 v1y)))
 (let ((?x154 (+ (+ (+ (+ (* b1x xy) (* b1y v1x)) (* v1y xx)) ?x267) ?x220)))
 (> (+ ?x154 ?x326) 0.0)))))))))
(assert
 (let ((?x490 (* (- 1.0) v1x)))
 (let ((?x326 (* ?x490 xy)))
 (let ((?x341 (* (- 1.0) b2y)))
 (let ((?x204 (* ?x341 xx)))
 (let ((?x352 (* (- 1.0) b2x)))
 (let ((?x258 (* ?x352 v1y)))
 (let ((?x151 (+ (+ (+ (+ (* b2x xy) (* b2y v1x)) (* v1y xx)) ?x258) ?x204)))
 (> (+ ?x151 ?x326) 0.0)))))))))
(assert
 (let ((?x341 (* (- 1.0) b2y)))
 (let ((?x204 (* ?x341 xx)))
 (let ((?x354 (* (- 1.0) b1y)))
 (let ((?x254 (* ?x354 b2x)))
 (let ((?x364 (* (- 1.0) b1x)))
 (let ((?x229 (* ?x364 xy)))
 (let ((?x144 (+ (+ (+ (+ (* b1x b2y) (* b1y xx)) (* b2x xy)) ?x229) ?x254)))
 (> (+ ?x144 ?x204) 0.0)))))))))
(assert
 (let ((?x371 (* (- 1.0) a1y)))
 (let ((?x301 (* ?x371 a2x)))
 (> (+ (+ (+ a1y (* (- 1.0) a2y)) (* a1x a2y)) ?x301) 0.0))))
(assert
 (let ((?x371 (* (- 1.0) a1y)))
 (let ((?x372 (* ?x371 v1x)))
 (> (+ (+ (+ a1y (* (- 1.0) v1y)) (* a1x v1y)) ?x372) 0.0))))
(assert
 (let ((?x371 (* (- 1.0) a1y)))
 (let ((?x294 (* ?x371 b1x)))
 (> (+ (+ (+ a1y (* (- 1.0) b1y)) (* a1x b1y)) ?x294) 0.0))))
(assert
 (let ((?x371 (* (- 1.0) a1y)))
 (let ((?x292 (* ?x371 b2x)))
 (> (+ (+ (+ a1y (* (- 1.0) b2y)) (* a1x b2y)) ?x292) 0.0))))
(assert
 (let ((?x312 (* (- 1.0) a2y)))
 (let ((?x369 (* ?x312 v1x)))
 (> (+ (+ (+ a2y (* (- 1.0) v1y)) (* a2x v1y)) ?x369) 0.0))))
(assert
 (let ((?x312 (* (- 1.0) a2y)))
 (let ((?x276 (* ?x312 b1x)))
 (> (+ (+ (+ a2y (* (- 1.0) b1y)) (* a2x b1y)) ?x276) 0.0))))
(assert
 (let ((?x312 (* (- 1.0) a2y)))
 (let ((?x270 (* ?x312 b2x)))
 (> (+ (+ (+ a2y (* (- 1.0) b2y)) (* a2x b2y)) ?x270) 0.0))))
(assert
 (let ((?x364 (* (- 1.0) b1x)))
 (let ((?x267 (* ?x364 v1y)))
 (> (+ (+ (+ v1y (* (- 1.0) b1y)) (* b1y v1x)) ?x267) 0.0))))
(assert
 (let ((?x352 (* (- 1.0) b2x)))
 (let ((?x258 (* ?x352 v1y)))
 (> (+ (+ (+ v1y (* (- 1.0) b2y)) (* b2y v1x)) ?x258) 0.0))))
(assert
 (let ((?x354 (* (- 1.0) b1y)))
 (let ((?x254 (* ?x354 b2x)))
 (> (+ (+ (+ b1y (* (- 1.0) b2y)) (* b1x b2y)) ?x254) 0.0))))
(assert
 (let ((?x312 (* (- 1.0) a2y)))
 (let ((?x369 (* ?x312 v1x)))
 (let ((?x371 (* (- 1.0) a1y)))
 (let ((?x301 (* ?x371 a2x)))
 (let ((?x103 (+ (+ (+ (* a1x a2y) (* a1y v1x)) (* a2x v1y)) (* (* (- 1.0) a1x) v1y))))
 (> (+ (+ ?x103 ?x301) ?x369) 0.0)))))))
(assert
 (let ((?x312 (* (- 1.0) a2y)))
 (let ((?x276 (* ?x312 b1x)))
 (let ((?x371 (* (- 1.0) a1y)))
 (let ((?x301 (* ?x371 a2x)))
 (let ((?x329 (* (- 1.0) a1x)))
 (let ((?x43 (* ?x329 b1y)))
 (let ((?x101 (+ (+ (+ (+ (* a1x a2y) (* a1y b1x)) (* a2x b1y)) ?x43) ?x301)))
 (> (+ ?x101 ?x276) 0.0)))))))))
(assert
 (let ((?x312 (* (- 1.0) a2y)))
 (let ((?x270 (* ?x312 b2x)))
 (let ((?x371 (* (- 1.0) a1y)))
 (let ((?x301 (* ?x371 a2x)))
 (let ((?x329 (* (- 1.0) a1x)))
 (let ((?x89 (* ?x329 b2y)))
 (let ((?x27 (+ (+ (+ (+ (* a1x a2y) (* a1y b2x)) (* a2x b2y)) ?x89) ?x301)))
 (> (+ ?x27 ?x270) 0.0)))))))))
(assert
 (let ((?x364 (* (- 1.0) b1x)))
 (let ((?x267 (* ?x364 v1y)))
 (let ((?x371 (* (- 1.0) a1y)))
 (let ((?x372 (* ?x371 v1x)))
 (let ((?x329 (* (- 1.0) a1x)))
 (let ((?x43 (* ?x329 b1y)))
 (let ((?x93 (+ (+ (+ (+ (* a1x v1y) (* a1y b1x)) (* b1y v1x)) ?x43) ?x372)))
 (> (+ ?x93 ?x267) 0.0)))))))))
(assert
 (let ((?x352 (* (- 1.0) b2x)))
 (let ((?x258 (* ?x352 v1y)))
 (let ((?x371 (* (- 1.0) a1y)))
 (let ((?x372 (* ?x371 v1x)))
 (let ((?x329 (* (- 1.0) a1x)))
 (let ((?x89 (* ?x329 b2y)))
 (let ((?x71 (+ (+ (+ (+ (* a1x v1y) (* a1y b2x)) (* b2y v1x)) ?x89) ?x372)))
 (> (+ ?x71 ?x258) 0.0)))))))))
(assert
 (let ((?x354 (* (- 1.0) b1y)))
 (let ((?x254 (* ?x354 b2x)))
 (let ((?x371 (* (- 1.0) a1y)))
 (let ((?x294 (* ?x371 b1x)))
 (let ((?x329 (* (- 1.0) a1x)))
 (let ((?x89 (* ?x329 b2y)))
 (let ((?x81 (+ (+ (+ (+ (* a1x b1y) (* a1y b2x)) (* b1x b2y)) ?x89) ?x294)))
 (> (+ ?x81 ?x254) 0.0)))))))))
(assert
 (let ((?x364 (* (- 1.0) b1x)))
 (let ((?x267 (* ?x364 v1y)))
 (let ((?x312 (* (- 1.0) a2y)))
 (let ((?x369 (* ?x312 v1x)))
 (let ((?x66 (+ (+ (+ (* a2x v1y) (* a2y b1x)) (* b1y v1x)) (* (* (- 1.0) a2x) b1y))))
 (> (+ (+ ?x66 ?x369) ?x267) 0.0)))))))
(assert
 (let ((?x352 (* (- 1.0) b2x)))
 (let ((?x258 (* ?x352 v1y)))
 (let ((?x312 (* (- 1.0) a2y)))
 (let ((?x369 (* ?x312 v1x)))
 (let ((?x334 (* (- 1.0) a2x)))
 (let ((?x49 (* ?x334 b2y)))
 (let ((?x45 (+ (+ (+ (+ (* a2x v1y) (* a2y b2x)) (* b2y v1x)) ?x49) ?x369)))
 (> (+ ?x45 ?x258) 0.0)))))))))
(assert
 (let ((?x354 (* (- 1.0) b1y)))
 (let ((?x254 (* ?x354 b2x)))
 (let ((?x312 (* (- 1.0) a2y)))
 (let ((?x276 (* ?x312 b1x)))
 (let ((?x334 (* (- 1.0) a2x)))
 (let ((?x49 (* ?x334 b2y)))
 (let ((?x55 (+ (+ (+ (+ (* a2x b1y) (* a2y b2x)) (* b1x b2y)) ?x49) ?x276)))
 (> (+ ?x55 ?x254) 0.0)))))))))
(assert
 (let ((?x354 (* (- 1.0) b1y)))
(let ((?x254 (* ?x354 b2x)))
(let ((?x364 (* (- 1.0) b1x)))
(let ((?x267 (* ?x364 v1y)))
(let ((?x33 (+ (+ (+ (+ (* b1x b2y) (* b1y v1x)) (* b2x v1y)) ?x267) ?x254)))
(> (+ ?x33 (* (* (- 1.0) b2y) v1x)) 0.0)))))))
(check-sat)
